*SENSE:Maximize
NAME          MODEL
ROWS
 N  OBJ
 L  C0000000
 L  C0000001
 L  C0000002
 L  C0000003
 E  C0000004
COLUMNS
    X0000000  C0000000   3.000000000000e+00
    X0000000  C0000001  -2.000000000000e+00
    X0000000  C0000002  -4.000000000000e+00
    X0000000  C0000003   6.000000000000e+00
    X0000000  C0000004   1.000000000000e+00
    X0000001  C0000000  -4.000000000000e+00
    X0000001  C0000001   2.000000000000e+00
    X0000001  C0000002  -1.000000000000e+00
    X0000001  C0000003  -8.000000000000e+00
    X0000001  C0000004   1.000000000000e+00
    X0000002  C0000001  -3.000000000000e+00
    X0000002  C0000002  -2.000000000000e+00
    X0000002  C0000003  -1.000000000000e+00
    X0000002  C0000004   1.000000000000e+00
    X0000004  C0000000  -1.000000000000e+00
    X0000004  C0000001  -1.000000000000e+00
    X0000004  C0000002  -1.000000000000e+00
    X0000004  C0000003  -1.000000000000e+00
    X0000004  C0000004   1.000000000000e+00
    X0000004  OBJ       -1.000000000000e+00
    X0000004  C0000000  -1.000000000000e+00
    X0000004  C0000001  -1.000000000000e+00
    X0000004  C0000002  -1.000000000000e+00
    X0000004  C0000003  -1.000000000000e+00
    X0000004  C0000004   1.000000000000e+00
RHS
    RHS       C0000000   0.000000000000e+00
    RHS       C0000001   0.000000000000e+00
    RHS       C0000002   0.000000000000e+00
    RHS       C0000003   0.000000000000e+00
    RHS       C0000004   1.000000000000e+00
BOUNDS
ENDATA
